language ESSENCE' 1.0
$ minion Nodes: 1
$ minion TotalTime: 0.000356
$ Savile Row TotalTime: 0.137
letting pain_tuple2 be [[8;int(3)], 
[9;int(3)];int(1..2)]
letting pain_tuple1_tuple1 be [[2;int(3)], 
[1;int(3)];int(1..2)]
letting pain_tuple1_tuple2 be [[5;int(3)], 
[4;int(3)];int(1..2)]
